Solving original (integer) problem with strategy gdp.hull_exact...
--- Job model.gms Start 02/15/26 03:29:55 52.2.0 d8e408be LEX-LEG x86 64bit/Linux
--- Applying:
    /package/gams/52.2/gmsprmun.txt
--- GAMS Parameters defined
    Input /local/scratch/a/sgusev/repos/k_means/data/gams_gurobi_gdp.hull_exact/no_mode/2026-02-15_03-29-55/original/model.gms
    Output /local/scratch/a/sgusev/repos/k_means/data/gams_gurobi_gdp.hull_exact/no_mode/2026-02-15_03-29-55/original/output.lst
    ScrDir /local/scratch/a/sgusev/repos/k_means/data/gams_gurobi_gdp.hull_exact/no_mode/2026-02-15_03-29-55/original/225a/
    SysDir /package/gams/52.2/
    CurDir /local/scratch/a/sgusev/repos/k_means/data/gams_gurobi_gdp.hull_exact/no_mode/2026-02-15_03-29-55/original/
    LogOption 3
    AppendLog 1
Licensee: David Bernal / SECQUOIA Research Group         G251008+0003Ac-GEN
          Purdue University, Davidson School of Chemical EngineeringDCE4838
          225a/gamslice.dat
          5a82958a-fbca-4a23
          node:66820903 mem:995 cores:48 ipport:42087 v:2                  
          Evaluation license: Not for commercial or production use
          The time-limited license stops working on : Jun 30, 2027
System information: 48 physical cores and 995 Gb physical memory detected
GAMS 52.2.0   Copyright (C) 1987-2025 GAMS Development. All rights reserved
--- Starting compilation
--- model.gms(3794) 2 Mb
--- $echo File /local/scratch/a/sgusev/repos/k_means/data/gams_gurobi_gdp.hull_exact/no_mode/2026-02-15_03-29-55/original/gurobi.opt
--- model.gms(5559) 2 Mb
--- Starting execution: elapsed 0:00:00.019
--- model.gms(3803) 3 Mb
--- Generating MINLP model GAMS_MODEL
--- model.gms(3807) 6 Mb
---   1,159 rows  540 columns  2,793 non-zeroes
---   1,785 nl-code  306 nl-non-zeroes
---   51 discrete-columns
--- Range statistics (absolute non-zero finite values)
--- RHS       [min, max] : [ 1.000E+00, 1.000E+00] - Zero values observed as well
--- Bound     [min, max] : [ 1.000E+00, 1.360E+02] - Zero values observed as well
--- Matrix    [min, max] : [ 1.000E+00, 1.360E+02] - Zero values observed as well
--- model.gms(3807) 4 Mb
--- Executing GUROBI (Solvelink=5): elapsed 0:00:00.026
Reading parameter(s) from "/local/scratch/a/sgusev/repos/k_means/data/gams_gurobi_gdp.hull_exact/no_mode/2026-02-15_03-29-55/original/gurobi.opt"
>>  NonConvex 2
>>  Threads 1
>>  MIPGap 1e-06
>>  MIPGapAbs 1e-10
>>  FeasibilityTol 1e-06
>>  OptimalityTol 1e-06
>>  IntFeasTol 1e-05
Finished reading from "/local/scratch/a/sgusev/repos/k_means/data/gams_gurobi_gdp.hull_exact/no_mode/2026-02-15_03-29-55/original/gurobi.opt"

... GRB_LICENSE_FILE = /local/scratch/a/sgusev/gurobi.lic

    Gurobi           52.2.0 d8e408be Dec 8, 2025           LEG x86 64bit/Linux    

... GAMS/Gurobi Link license.
... GMO Q Extraction (ThreePass): 0.00s

    Gurobi Optimizer version 13.0.0 build v13.0.0rc1 (linux64 - "Oracle Linux Server 9.7")
    
    CPU model: AMD EPYC 7643 48-Core Processor, instruction set [SSE2|AVX|AVX2]
    Thread count: 48 physical cores, 96 logical processors, using up to 1 threads
    
    Non-default parameters:
    TimeLimit  300
    MIPGap  1e-06
    LogToConsole  0
    NonConvex  2
    Threads  1
    
    Optimize a model with 1107 rows, 539 columns and 2469 nonzeros (Min)
    Model fingerprint: 0x203c0d98
    Model has 17 linear objective coefficients
    Model has 51 quadratic constraints
    Variable types: 488 continuous, 51 integer (0 binary)
    Coefficient statistics:
      Matrix range     [1e+00, 1e+02]
      QMatrix range    [3e-02, 2e+00]
      Objective range  [1e+00, 1e+00]
      Bounds range     [1e+00, 1e+02]
      RHS range        [1e+00, 1e+00]
    Presolve removed 204 rows and 221 columns
    Presolve time: 0.01s
    Presolved: 1371 rows, 777 columns, 3685 nonzeros
    Presolved model has 204 quadratic constraint(s)
    Variable types: 726 continuous, 51 integer (51 binary)
    
    Root relaxation: objective 0.000000e+00, 399 iterations, 0.00 seconds (0.01 work units)
    
        Nodes    |    Current Node    |     Objective Bounds      |     Work
     Expl Unexpl |  Obj  Depth IntInf | Incumbent    BestBd   Gap | It/Node Time
    
         0     0    0.00000    0    2          -    0.00000      -     -    0s
    H    0     0                      12.6611241    0.00000   100%     -    0s
         0     0    0.00000    0    8   12.66112    0.00000   100%     -    0s
         0     0    0.00000    0   30   12.66112    0.00000   100%     -    0s
    H    0     0                      11.5470237    0.00000   100%     -    0s
         0     0    0.00000    0   32   11.54702    0.00000   100%     -    0s
         0     0    0.00000    0   30   11.54702    0.00000   100%     -    0s
         0     0    0.00000    0   24   11.54702    0.00000   100%     -    0s
         0     0    0.00000    0   26   11.54702    0.00000   100%     -    0s
         0     0    0.00000    0   24   11.54702    0.00000   100%     -    0s
         0     0    0.00000    0   26   11.54702    0.00000   100%     -    0s
         0     0    0.00000    0   26   11.54702    0.00000   100%     -    0s
         0     0    0.00000    0   30   11.54702    0.00000   100%     -    0s
         0     0    0.00000    0   28   11.54702    0.00000   100%     -    0s
         0     0    0.00000    0   28   11.54702    0.00000   100%     -    0s
         0     0    0.00000    0   28   11.54702    0.00000   100%     -    0s
         0     0    0.00000    0   26   11.54702    0.00000   100%     -    0s
         0     0    0.00000    0   22   11.54702    0.00000   100%     -    0s
         0     0    0.00000    0   28   11.54702    0.00000   100%     -    0s
         0     0    0.00000    0   28   11.54702    0.00000   100%     -    0s
         0     0    0.00000    0   28   11.54702    0.00000   100%     -    0s
         0     0    0.00000    0   26   11.54702    0.00000   100%     -    0s
         0     0    0.00000    0   28   11.54702    0.00000   100%     -    0s
         0     0    0.00000    0   28   11.54702    0.00000   100%     -    0s
         0     0    0.00000    0   30   11.54702    0.00000   100%     -    0s
         0     0    0.00000    0   30   11.54702    0.00000   100%     -    0s
         0     0    0.00000    0   31   11.54702    0.00000   100%     -    0s
         0     0    0.00000    0   31   11.54702    0.00000   100%     -    0s
         0     0    0.00000    0   31   11.54702    0.00000   100%     -    0s
         0     0    0.00000    0   31   11.54702    0.00000   100%     -    0s
         0     0    0.00000    0   31   11.54702    0.00000   100%     -    0s
         0     0    0.00000    0   28   11.54702    0.00000   100%     -    0s
         0     0    0.00000    0   26   11.54702    0.00000   100%     -    0s
         0     0    0.00000    0   26   11.54702    0.00000   100%     -    0s
         0     0    0.00000    0   31   11.54702    0.00000   100%     -    0s
         0     0    0.00000    0   26   11.54702    0.00000   100%     -    0s
         0     0    0.00000    0   32   11.54702    0.00000   100%     -    0s
         0     0    0.00000    0   32   11.54702    0.00000   100%     -    0s
         0     0    0.00000    0   32   11.54702    0.00000   100%     -    0s
         0     0    0.00000    0   28   11.54702    0.00000   100%     -    0s
         0     0    0.00000    0   30   11.54702    0.00000   100%     -    0s
         0     0    0.00000    0   28   11.54702    0.00000   100%     -    0s
         0     0    0.00000    0   28   11.54702    0.00000   100%     -    0s
         0     0    0.00000    0   24   11.54702    0.00000   100%     -    0s
         0     0    0.00000    0   26   11.54702    0.00000   100%     -    0s
         0     0    0.00000    0   26   11.54702    0.00000   100%     -    0s
         0     0    0.00000    0   31   11.54702    0.00000   100%     -    0s
         0     0    0.00000    0   30   11.54702    0.00000   100%     -    0s
         0     0    0.00000    0   28   11.54702    0.00000   100%     -    0s
         0     0    0.00000    0   28   11.54702    0.00000   100%     -    0s
         0     0    0.00000    0   32   11.54702    0.00000   100%     -    0s
         0     0    0.00000    0   30   11.54702    0.00000   100%     -    0s
         0     0    0.00000    0   26   11.54702    0.00000   100%     -    0s
         0     0    0.00000    0   26   11.54702    0.00000   100%     -    0s
         0     0    0.00000    0   24   11.54702    0.00000   100%     -    0s
         0     0    0.00000    0   18   11.54702    0.00000   100%     -    0s
         0     0    0.00000    0   28   11.54702    0.00000   100%     -    0s
         0     0    0.00000    0   27   11.54702    0.00000   100%     -    0s
         0     0    0.00000    0   28   11.54702    0.00000   100%     -    0s
         0     0    0.00000    0   28   11.54702    0.00000   100%     -    0s
         0     0    0.00000    0   28   11.54702    0.00000   100%     -    0s
         0     0    0.00000    0   28   11.54702    0.00000   100%     -    0s
         0     0    0.00000    0   28   11.54702    0.00000   100%     -    0s
         0     0    0.00000    0   28   11.54702    0.00000   100%     -    1s
         0     0    0.00000    0   30   11.54702    0.00000   100%     -    1s
         0     0    0.00000    0   30   11.54702    0.00000   100%     -    1s
         0     0    0.00000    0   30   11.54702    0.00000   100%     -    1s
         0     0    0.00000    0   28   11.54702    0.00000   100%     -    1s
         0     0    0.00000    0   26   11.54702    0.00000   100%     -    1s
         0     0    0.00000    0   26   11.54702    0.00000   100%     -    1s
         0     0    0.00000    0   30   11.54702    0.00000   100%     -    1s
         0     0    0.00000    0   28   11.54702    0.00000   100%     -    1s
         0     0    0.00000    0   32   11.54702    0.00000   100%     -    1s
         0     0    0.00000    0   30   11.54702    0.00000   100%     -    1s
         0     0    0.00000    0   33   11.54702    0.00000   100%     -    1s
         0     0    0.00000    0   24   11.54702    0.00000   100%     -    1s
         0     0    0.00000    0   22   11.54702    0.00000   100%     -    1s
         0     0    0.00000    0   22   11.54702    0.00000   100%     -    1s
         0     0    0.00000    0   30   11.54702    0.00000   100%     -    1s
         0     0    0.00000    0   30   11.54702    0.00000   100%     -    1s
         0     0    0.00000    0   26   11.54702    0.00000   100%     -    1s
         0     0    0.00000    0   26   11.54702    0.00000   100%     -    1s
         0     0    0.00000    0   30   11.54702    0.00000   100%     -    1s
         0     0    0.00000    0   28   11.54702    0.00000   100%     -    1s
         0     0    0.00000    0   26   11.54702    0.00000   100%     -    1s
         0     0    0.00000    0   26   11.54702    0.00000   100%     -    1s
         0     0    0.00000    0   30   11.54702    0.00000   100%     -    1s
         0     0    0.00000    0   24   11.54702    0.00000   100%     -    1s
         0     0    0.00000    0   28   11.54702    0.00000   100%     -    1s
         0     0    0.00000    0   26   11.54702    0.00000   100%     -    1s
         0     0    0.00000    0   26   11.54702    0.00000   100%     -    1s
         0     0    0.00000    0   26   11.54702    0.00000   100%     -    1s
         0     0    0.00000    0   34   11.54702    0.00000   100%     -    1s
         0     0    0.00000    0   28   11.54702    0.00000   100%     -    1s
         0     0    0.00000    0   24   11.54702    0.00000   100%     -    1s
         0     0    0.00000    0   24   11.54702    0.00000   100%     -    1s
         0     0    0.00000    0   28   11.54702    0.00000   100%     -    1s
         0     0    0.00000    0   26   11.54702    0.00000   100%     -    1s
         0     0    0.00000    0   28   11.54702    0.00000   100%     -    1s
         0     0    0.00000    0   20   11.54702    0.00000   100%     -    1s
         0     0    0.00000    0   27   11.54702    0.00000   100%     -    1s
         0     0    0.00000    0   27   11.54702    0.00000   100%     -    1s
         0     0    0.00000    0   26   11.54702    0.00000   100%     -    1s
         0     0    0.00000    0   24   11.54702    0.00000   100%     -    1s
         0     0    0.00000    0   26   11.54702    0.00000   100%     -    1s
         0     0    0.00000    0   16   11.54702    0.00000   100%     -    1s
         0     0    0.00000    0   28   11.54702    0.00000   100%     -    1s
         0     0    0.00000    0   28   11.54702    0.00000   100%     -    1s
         0     0    0.00000    0   28   11.54702    0.00000   100%     -    1s
         0     0    0.00000    0   23   11.54702    0.00000   100%     -    1s
         0     0    0.00000    0   30   11.54702    0.00000   100%     -    1s
         0     0    0.00000    0   30   11.54702    0.00000   100%     -    1s
         0     0    0.00000    0   30   11.54702    0.00000   100%     -    1s
         0     0    0.00000    0   26   11.54702    0.00000   100%     -    1s
         0     0    0.00000    0   30   11.54702    0.00000   100%     -    1s
         0     0    0.00000    0   30   11.54702    0.00000   100%     -    1s
         0     0    0.00000    0   30   11.54702    0.00000   100%     -    1s
         0     0    0.00000    0   30   11.54702    0.00000   100%     -    1s
         0     0    0.00000    0   30   11.54702    0.00000   100%     -    1s
         0     0    0.00000    0   30   11.54702    0.00000   100%     -    1s
         0     0    0.00000    0   32   11.54702    0.00000   100%     -    1s
         0     0    0.00000    0   24   11.54702    0.00000   100%     -    1s
         0     0    0.00000    0   31   11.54702    0.00000   100%     -    1s
         0     0    0.00000    0   29   11.54702    0.00000   100%     -    2s
         0     0    0.00000    0   28   11.54702    0.00000   100%     -    2s
         0     0    0.00000    0   28   11.54702    0.00000   100%     -    2s
         0     0    0.00000    0   28   11.54702    0.00000   100%     -    2s
         0     0    0.00000    0   28   11.54702    0.00000   100%     -    2s
         0     0    0.00000    0   28   11.54702    0.00000   100%     -    2s
         0     0    0.00000    0   28   11.54702    0.00000   100%     -    2s
         0     0    0.00000    0   30   11.54702    0.00000   100%     -    2s
         0     0    0.00000    0   19   11.54702    0.00000   100%     -    2s
         0     0    0.00000    0   24   11.54702    0.00000   100%     -    2s
         0     0    0.00000    0   18   11.54702    0.00000   100%     -    2s
         0     0    0.00000    0   28   11.54702    0.00000   100%     -    2s
         0     0    0.00000    0   28   11.54702    0.00000   100%     -    2s
         0     0    0.00000    0   32   11.54702    0.00000   100%     -    2s
         0     0    0.00000    0   30   11.54702    0.00000   100%     -    2s
         0     0    0.00000    0   28   11.54702    0.00000   100%     -    2s
         0     0    0.00000    0   20   11.54702    0.00000   100%     -    2s
         0     0    0.00000    0   26   11.54702    0.00000   100%     -    2s
         0     0    0.00000    0   23   11.54702    0.00000   100%     -    2s
         0     0    0.00000    0   28   11.54702    0.00000   100%     -    2s
         0     0    0.00000    0   28   11.54702    0.00000   100%     -    2s
         0     0    0.00000    0   28   11.54702    0.00000   100%     -    2s
         0     0    0.00000    0   22   11.54702    0.00000   100%     -    2s
         0     0    0.00000    0   32   11.54702    0.00000   100%     -    2s
         0     0    0.00000    0   26   11.54702    0.00000   100%     -    2s
         0     0    0.00000    0   26   11.54702    0.00000   100%     -    2s
         0     0    0.00000    0   25   11.54702    0.00000   100%     -    2s
         0     0    0.00000    0   26   11.54702    0.00000   100%     -    2s
         0     0    0.00000    0   26   11.54702    0.00000   100%     -    2s
         0     0    0.00000    0   28   11.54702    0.00000   100%     -    2s
         0     0    0.00000    0   22   11.54702    0.00000   100%     -    2s
         0     0    0.00000    0   25   11.54702    0.00000   100%     -    2s
         0     0    0.00000    0   25   11.54702    0.00000   100%     -    2s
         0     0    0.00000    0   31   11.54702    0.00000   100%     -    2s
         0     0    0.00000    0   31   11.54702    0.00000   100%     -    2s
         0     0    0.00000    0   28   11.54702    0.00000   100%     -    2s
         0     0    0.00000    0   28   11.54702    0.00000   100%     -    2s
         0     0    0.00000    0   28   11.54702    0.00000   100%     -    2s
         0     0    0.00000    0   28   11.54702    0.00000   100%     -    2s
         0     0    0.00000    0   28   11.54702    0.00000   100%     -    2s
         0     0    0.00000    0   28   11.54702    0.00000   100%     -    2s
         0     0    0.00000    0   28   11.54702    0.00000   100%     -    2s
         0     0    0.00000    0   24   11.54702    0.00000   100%     -    2s
         0     0    0.00000    0   26   11.54702    0.00000   100%     -    2s
         0     0    0.00000    0   26   11.54702    0.00000   100%     -    2s
         0     0    0.00000    0   27   11.54702    0.00000   100%     -    2s
         0     0    0.00000    0   27   11.54702    0.00000   100%     -    2s
         0     0    0.00000    0   28   11.54702    0.00000   100%     -    2s
         0     0    0.00000    0   28   11.54702    0.00000   100%     -    2s
         0     0    0.00000    0   30   11.54702    0.00000   100%     -    2s
         0     0    0.00000    0   25   11.54702    0.00000   100%     -    2s
         0     0    0.00000    0   24   11.54702    0.00000   100%     -    2s
         0     0    0.00000    0   24   11.54702    0.00000   100%     -    2s
         0     0    0.00000    0   28   11.54702    0.00000   100%     -    2s
         0     0    0.00000    0   28   11.54702    0.00000   100%     -    2s
         0     0    0.00000    0   30   11.54702    0.00000   100%     -    2s
         0     0    0.00000    0   30   11.54702    0.00000   100%     -    2s
         0     0    0.00000    0   28   11.54702    0.00000   100%     -    3s
         0     0    0.00000    0   26   11.54702    0.00000   100%     -    3s
         0     0    0.00000    0   28   11.54702    0.00000   100%     -    3s
         0     0    0.00000    0   28   11.54702    0.00000   100%     -    3s
         0     0    0.00000    0   30   11.54702    0.00000   100%     -    3s
         0     0    0.00000    0   22   11.54702    0.00000   100%     -    3s
         0     0    0.00000    0   24   11.54702    0.00000   100%     -    3s
         0     0    0.00000    0   24   11.54702    0.00000   100%     -    3s
         0     0    0.00000    0   24   11.54702    0.00000   100%     -    3s
         0     0    0.00000    0   24   11.54702    0.00000   100%     -    3s
         0     0    0.00000    0   28   11.54702    0.00000   100%     -    3s
         0     0    0.00000    0   28   11.54702    0.00000   100%     -    3s
         0     0    0.00000    0   28   11.54702    0.00000   100%     -    3s
         0     0    0.00000    0   28   11.54702    0.00000   100%     -    3s
         0     0    0.00000    0   30   11.54702    0.00000   100%     -    3s
         0     0    0.00000    0   22   11.54702    0.00000   100%     -    3s
         0     0    0.00000    0   30   11.54702    0.00000   100%     -    3s
         0     0    0.00000    0   30   11.54702    0.00000   100%     -    3s
         0     0    0.00000    0   32   11.54702    0.00000   100%     -    3s
         0     0    0.00000    0   31   11.54702    0.00000   100%     -    3s
         0     0    0.00000    0   28   11.54702    0.00000   100%     -    3s
         0     0    0.00000    0   28   11.54702    0.00000   100%     -    3s
         0     0    0.00000    0   32   11.54702    0.00000   100%     -    3s
         0     0    0.00000    0   28   11.54702    0.00000   100%     -    3s
         0     2    0.00000    0   26   11.54702    0.00000   100%     -    3s
    H   37    37                      11.5470202    0.00000   100%   187    3s
    H   98    88                      10.8960275    0.00000   100%   148    4s
    H  110    94                       9.9543485    0.00000   100%   138    4s
    H  164   132                       9.8919241    0.00000   100%   151    4s
    H  222   172                       9.8919238    0.00000   100%   141    4s
       296   225    9.27670   21   28    9.89192    0.00000   100%   136    5s
       350   261    9.44990   25   37    9.89192    0.00000   100%   115   10s
    H  364   256                       9.8919238    0.00000   100%   225   11s
    H  376   250                       9.8919238    0.00000   100%   224   11s
    H  398   251                       9.3995502    0.00000   100%   215   11s
    H  401   237                       8.8627997    0.00000   100%   214   11s
    H  414   228                       8.8627996    0.00000   100%   219   12s
    H  737   322                       8.8217244    0.94616  89.3%   199   14s
    H  757   325                       8.8217232    0.94616  89.3%   198   14s
       773   330    1.18802   17   40    8.82172    0.96739  89.0%   195   15s
    H  808   335                       8.8113753    0.96739  89.0%   193   15s
    H  812   328                       8.7889265    0.96739  89.0%   192   15s
    H  827   331                       8.7889238    0.97342  88.9%   191   15s
    H  865   357                       8.7889208    0.98433  88.8%   191   15s
    H 1401   640                       8.5943412    2.21186  74.3%   168   17s
    H 1546   719                       8.5943410    2.40193  72.1%   161   18s
      2080   968    7.28937   27   25    8.59434    2.74294  68.1%   150   20s
      3592  1574    5.78929   24   29    8.59434    3.42598  60.1%   136   25s
    H 4131  1757                       8.5480535    3.57364  58.2%   130   26s
    H 4374  1832                       8.5480525    3.61838  57.7%   128   27s
    H 4567  1899                       8.5480524    3.66999  57.1%   127   27s
      5270  2170    7.95840   26   22    8.54805    3.91994  54.1%   125   30s
      7250  2752     cutoff   28         8.54805    4.32753  49.4%   116   35s
      9170  3224    5.85277   22   29    8.54805    4.64146  45.7%   112   40s
     11174  3669    7.86431   28   21    8.54805    4.91716  42.5%   107   45s
     13301  4057    7.60642   27   24    8.54805    5.12983  40.0%   103   50s
    H14724  4239                       8.4538382    5.27361  37.6%   102   53s
    H15045  4288                       8.4538375    5.30057  37.3%   101   54s
     15361  4341    8.04203   25   23    8.45384    5.32051  37.1%   101   55s
    H16745  4555                       8.4538375    5.40191  36.1%  99.4   58s
     17476  4653    8.28483   33    8    8.45384    5.47062  35.3%  98.3   60s
    H18692  4795                       8.4538375    5.57171  34.1%  97.4   63s
     19079  4831    5.99409   24   30    8.45384    5.59851  33.8%  97.2   66s
     20694  4963    7.27108   30   14    8.45384    5.70706  32.5%  95.7   70s
     22743  5189    7.25472   28   22    8.45384    5.82010  31.2%  94.6   75s
     24747  5296    7.71526   27   20    8.45384    5.92412  29.9%  93.9   80s
     27015  5408    7.97965   24   25    8.45384    6.03819  28.6%  92.5   85s
    H28361  5352                       8.3117427    6.10415  26.6%  91.6   87s
     29250  5350    7.74279   25   24    8.31174    6.14362  26.1%  91.2   90s
    H30506  5313                       8.3117425    6.21943  25.2%  90.4   92s
    H30563  5310                       8.3117424    6.22209  25.1%  90.5   92s
     31452  5271    7.23084   27   20    8.31174    6.26837  24.6%  90.2   95s
     33769  5158    8.03167   26   23    8.31174    6.41244  22.9%  89.0  100s
     36079  5032     cutoff   31         8.31174    6.53542  21.4%  87.9  105s
     38437  4767    7.84520   26   24    8.31174    6.65067  20.0%  86.8  110s
     40844  4481    7.76909   27   25    8.31174    6.77308  18.5%  85.7  115s
     43249  4102    7.99109   26   18    8.31174    6.89972  17.0%  84.8  120s
     45492  3676    8.15460   31   19    8.31174    7.03028  15.4%  83.6  125s
     47714  3108    8.19142   37   11    8.31174    7.18452  13.6%  82.7  130s
     50312  2230    7.72373   29   20    8.31174    7.40264  10.9%  81.3  135s
    H51429  1668                       8.2603268    7.53623  8.77%  80.6  136s
    H51594  1585                       8.2603201    7.56334  8.44%  80.5  137s
     53464   508    8.08927   33   19    8.26032    7.97218  3.49%  79.0  140s
    
    Cutting planes:
      Gomory: 1
      MIR: 1
      Flow cover: 2
    
    Explored 54096 nodes (4332280 simplex iterations) in 140.88 seconds (153.58 work units)
    Thread count was 1 (of 96 available processors)
    
    Solution count 10: 8.26032 8.26032 8.31174 ... 8.8628
    No other solutions better than 8.26032
    
    Optimal solution found (tolerance 1.00e-06)
    Best objective 8.260320068845e+00, best bound 8.260320068845e+00, gap 0.0000%
    
    User-callback calls 54228, time in user-callback 0.00 sec

... Solving fixed model...

    Gurobi Optimizer version 13.0.0 build v13.0.0rc1 (linux64 - "Oracle Linux Server 9.7")
    
    CPU model: AMD EPYC 7643 48-Core Processor, instruction set [SSE2|AVX|AVX2]
    Thread count: 48 physical cores, 96 logical processors, using up to 1 threads
    
    Non-default parameters:
    TimeLimit  300
    MIPGap  1e-06
    LogToConsole  0
    NonConvex  2
    Threads  1
    
    Optimize a model with 1107 rows, 539 columns and 2469 nonzeros (Min)
    Model fingerprint: 0x18162c43
    Model has 17 linear objective coefficients
    Model has 51 quadratic constraints
    Coefficient statistics:
      Matrix range     [1e+00, 1e+02]
      QMatrix range    [3e-02, 2e+00]
      Objective range  [1e+00, 1e+00]
      Bounds range     [1e+00, 1e+02]
      RHS range        [1e+00, 1e+00]
    Presolve removed 1105 rows and 510 columns
    Presolve time: 0.00s
    Presolved: 103 rows, 119 columns, 263 nonzeros
    Presolved model has 17 second-order cone constraints
    Ordering time: 0.00s
    
    Barrier statistics:
     AA' NZ     : 1.438e+03
     Factor NZ  : 1.729e+03
     Factor Ops : 3.862e+04 (less than 1 second per iteration)
     Threads    : 1
    
                      Objective                Residual
    Iter       Primal          Dual         Primal    Dual     Compl     Time
       0   1.08245017e+03 -7.21141084e+02  1.39e+01 4.09e+00  1.51e+01     0s
       1   8.24235862e+01 -1.04347403e+02  1.52e-05 4.50e-06  1.17e+00     0s
       2   9.66289169e+00 -7.32141352e+00  1.66e-07 4.63e-07  1.06e-01     0s
       3   9.11442257e+00  6.69270935e+00  3.99e-10 4.02e-08  1.51e-02     0s
       4   8.30679638e+00  8.18912592e+00  1.95e-14 1.48e-09  7.35e-04     0s
       5   8.26130891e+00  8.25812016e+00  1.62e-13 3.96e-11  1.99e-05     0s
       6   8.26047428e+00  8.26021217e+00  8.18e-12 1.89e-12  1.64e-06     0s
       7   8.26032682e+00  8.26031785e+00  6.62e-10 3.92e-13  5.61e-08     0s
    
    Barrier solved model in 7 iterations and 0.00 seconds (0.00 work units)
    Optimal objective 8.26032682e+00
    
    
    User-callback calls 0, time in user-callback 0.00 sec
    Warning: to get QCP duals, please set parameter QCPDual to 1

--- Reading solution for model GAMS_MODEL
***
*** Solver did not provide marginals for model GAMS_MODEL
***
--- Executing after solve: elapsed 0:02:20.935
--- model.gms(3810) 4 Mb
--- model.gms(5559) 6 Mb
--- Putfile results /local/scratch/a/sgusev/repos/k_means/data/gams_gurobi_gdp.hull_exact/no_mode/2026-02-15_03-29-55/original/results.dat
--- Putfile statresults /local/scratch/a/sgusev/repos/k_means/data/gams_gurobi_gdp.hull_exact/no_mode/2026-02-15_03-29-55/original/resultsstat.dat
*** Status: Normal completion
--- Job model.gms Stop 02/15/26 03:32:16 elapsed 0:02:20.938
Original problem solved. Time taken: 141.551908493042 seconds
Original objective value: 8.2603268247747
